26 26
22
3 3 0 17
3 4 23 0
3 5 3 12
3 6 0 20
3 7 13 19
3 8 23 18
3 9 3 17
3 10 6 16
3 11 16 15
3 12 3 0
3 14 23 4
3 15 16 0
3 16 6 0
3 17 0 0
3 19 13 0
4 3 19 18
4 4 9 14
4 5 19 21
4 7 19 0
4 8 9 18
4 11 19 7
4 14 9 0
